(set-logic HORN)
(declare-fun state ((Array Int Int) Int Int Int Int Int Int Int Int) Bool)
(assert (forall ((|A_0| (Array Int Int)) (|B_0| Int) (|C_0| Int) (|D_0| Int) (|E_0| Int) (|F_0| Int) (|G_0| Int) (|H_0| Int) (|I_0| Int) (|.x.6| Int) (|.x.5| Int) (|.x.4| Int) (|.x.3| Int) (|.x.2| Int) (|.x.1| Int) (|I| Int) (|M| (Array Int Int)) (|.xpv.1| Int)) (=> (and (and (and (and (and (= B_0 1) (not (<= C_0 0))) (= D_0 1)) (= E_0 3)) (= G_0 5)) (= F_0 7)) (state |A_0| |B_0| |C_0| |D_0| |E_0| |F_0| |G_0| |H_0| |I_0|))))
(assert (forall ((|A_0| (Array Int Int)) (|B_0| Int) (|C_0| Int) (|D_0| Int) (|E_0| Int) (|F_0| Int) (|G_0| Int) (|H_0| Int) (|I_0| Int) (|.x.6| Int) (|.x.5| Int) (|.x.4| Int) (|.x.3| Int) (|.x.2| Int) (|.x.1| Int) (|I| Int) (|M| (Array Int Int)) (|.xpv.1| Int)) (=> (and (state |A_0| |B_0| |C_0| |D_0| |E_0| |F_0| |G_0| |H_0| |I_0|) (let ((.def_55 (* 4 B_0))) (let ((.def_67 (ite (<= H_0 G_0) (store A_0 (+ .def_55 (- 4)) G_0) (store A_0 (+ .def_55 (- 4)) 0)))) (let ((.def_71 (ite (<= H_0 F_0) (store .def_67 (+ .def_55 (- 3)) F_0) (store .def_67 (+ .def_55 (- 3)) 0)))) (let ((.def_75 (ite (<= H_0 E_0) (store .def_71 (+ .def_55 (- 2)) E_0) (store .def_71 (+ .def_55 (- 2)) 0)))) (and (= H_0 .x.6) (and (= G_0 .x.5) (and (= F_0 .x.4) (and (= E_0 .x.3) (and (= D_0 .x.2) (and (= C_0 .x.1) (and (= (+ B_0 (* (- 1) I)) (- 1)) (and (<= B_0 C_0) (= (ite (<= H_0 D_0) (store .def_75 (+ .def_55 (- 1)) D_0) (store .def_75 (+ .def_55 (- 1)) 0)) M)))))))))))))) (state |M| |I| |.x.1| |.x.2| |.x.3| |.x.4| |.x.5| |.x.6| |.xpv.1|))))
(assert (forall ((|A_0| (Array Int Int)) (|B_0| Int) (|C_0| Int) (|D_0| Int) (|E_0| Int) (|F_0| Int) (|G_0| Int) (|H_0| Int) (|I_0| Int) (|.x.6| Int) (|.x.5| Int) (|.x.4| Int) (|.x.3| Int) (|.x.2| Int) (|.x.1| Int) (|I| Int) (|M| (Array Int Int)) (|.xpv.1| Int)) (=> (state |A_0| |B_0| |C_0| |D_0| |E_0| |F_0| |G_0| |H_0| |I_0|) (let ((.def_93 (select A_0 I_0))) (not (and (and (<= 0 I_0) (and (and (not (<= B_0 C_0)) (not (= .def_93 0))) (not (<= H_0 .def_93)))) (not (<= (+ (* 4 C_0) (* (- 1) I_0)) 0))))))))
(check-sat)
